239
0 1 0
1 2 0
2 2 1
3 3 0
4 3 2
5 4 1
6 4 2
7 4 3
8 5 0
9 5 1
10 5 2
11 5 4
12 6 0
13 6 1
14 6 2
15 7 1
16 7 3
17 7 4
18 7 5
19 7 6
20 8 0
21 8 1
22 8 2
23 8 3
24 8 4
25 8 7
26 9 0
27 9 1
28 9 2
29 9 3
30 9 5
31 9 6
32 9 8
33 10 0
34 10 1
35 10 4
36 10 5
37 10 6
38 10 7
39 10 8
40 10 9
41 11 0
42 11 5
43 11 6
44 11 7
45 11 8
46 11 9
47 11 10
48 12 0
49 12 1
50 12 3
51 12 4
52 12 5
53 12 6
54 12 8
55 12 9
56 12 11
57 13 1
58 13 2
59 13 3
60 13 4
61 13 6
62 13 7
63 13 8
64 13 9
65 13 11
66 13 12
67 14 2
68 14 4
69 14 5
70 14 6
71 14 7
72 14 8
73 14 9
74 14 10
75 14 11
76 14 12
77 14 13
78 15 0
79 15 1
80 15 2
81 15 3
82 15 4
83 15 5
84 15 6
85 15 7
86 15 8
87 15 9
88 15 12
89 15 13
90 16 0
91 16 1
92 16 2
93 16 3
94 16 5
95 16 7
96 16 8
97 16 9
98 16 10
99 16 11
100 16 13
101 16 14
102 16 15
103 17 0
104 17 1
105 17 2
106 17 3
107 17 4
108 17 5
109 17 6
110 17 7
111 17 8
112 17 9
113 17 11
114 17 12
115 17 14
116 17 15
117 17 16
118 18 0
119 18 1
120 18 2
121 18 3
122 18 4
123 18 5
124 18 6
125 18 8
126 18 9
127 18 11
128 18 12
129 18 14
130 18 15
131 18 16
132 18 17
133 19 1
134 19 2
135 19 3
136 19 4
137 19 6
138 19 7
139 19 8
140 19 9
141 19 10
142 19 11
143 19 12
144 19 13
145 19 14
146 19 15
147 19 16
148 19 17
149 19 18
150 20 1
151 20 2
152 20 3
153 20 4
154 20 6
155 20 9
156 20 10
157 20 11
158 20 12
159 20 13
160 20 14
161 20 15
162 20 16
163 20 18
164 20 19
165 21 0
166 21 2
167 21 4
168 21 5
169 21 6
170 21 7
171 21 9
172 21 10
173 21 11
174 21 12
175 21 13
176 21 14
177 21 18
178 21 19
179 21 20
180 22 0
181 22 1
182 22 2
183 22 3
184 22 4
185 22 5
186 22 6
187 22 7
188 22 8
189 22 10
190 22 12
191 22 13
192 22 14
193 22 15
194 22 16
195 22 17
196 22 18
197 22 19
198 22 20
199 22 21
200 23 1
201 23 2
202 23 3
203 23 4
204 23 5
205 23 6
206 23 7
207 23 8
208 23 9
209 23 10
210 23 11
211 23 12
212 23 13
213 23 14
214 23 17
215 23 18
216 23 19
217 23 20
218 23 21
219 23 22
220 24 1
221 24 2
222 24 3
223 24 4
224 24 5
225 24 6
226 24 7
227 24 9
228 24 10
229 24 11
230 24 12
231 24 13
232 24 14
233 24 15
234 24 16
235 24 17
236 24 18
237 24 20
238 24 22
